proyfinal/src/viki/013/andrea/andrea-localstore/experimentInOfficeAgust.take6/worker_8/a2d9c541-3efb-4e92-ac85-2c01b59e8200.als.cnf.out
Reading from standard input... Use '--help' for help.
============================[ Problem Statistics ]=============================
|                                                                             |
|  Number of variables:         87638                                         |
|  Number of clauses:          161767                                         |
|  Parse time:                   0.03 s                                       |
|                                                                             |
============================[ Search Statistics ]==============================
| Conflicts |          ORIGINAL         |          LEARNT          | Progress |
|           |    Vars  Clauses Literals |    Limit  Clauses Lit/Cl |          |
===============================================================================
|       100 |   62092   104315   260207 |    38248      100      8 | 29.149 % |
|       250 |   62092   104315   260207 |    42073      250     18 | 29.149 % |
|       475 |   62092   104315   260207 |    46281      475     27 | 29.149 % |
|       812 |   62092   104315   260207 |    50909      812     44 | 29.149 % |
|      1318 |   62092   104315   260207 |    56000     1318     57 | 29.149 % |
|      2077 |   62062   104193   259885 |    61600     2035     68 | 29.184 % |
|      3216 |   62046   104127   259732 |    67760     3173     70 | 29.202 % |
|      4924 |   62028   104053   259561 |    74536     4880     70 | 29.222 % |
|      7486 |   62001   103866   259159 |    81989     6646     79 | 29.253 % |
|     11330 |   52739    75738   190453 |    90188     9219     66 | 39.822 % |
===============================================================================
restarts              : 63
conflicts             : 16488          (8657 /sec)
decisions             : 50469          (0.00 % random) (26499 /sec)
propagations          : 19660232       (10322803 /sec)
conflict literals     : 1094196        (48.31 % deleted)
Memory used           : 33.52 MB
CPU time              : 1.90454 s

UNSATISFIABLE
